c Random CNF formula
p cnf 200 41
-126 188 116 0
-54 99 -115 0
13 168 170 0
-76 118 16 0
-126 146 3 0
-21 139 170 0
-14 39 181 0
-157 -79 58 0
23 102 191 0
-36 14 72 0
-8 -90 94 0
-130 -172 120 0
185 117 64 0
95 -151 -51 0
74 135 150 0
144 -54 -187 0
186 147 -167 0
-2 76 118 0
61 28 -150 0
-43 190 15 0
-164 40 -108 0
26 -61 156 0
-132 -169 141 0
-75 182 58 0
-87 -106 -185 0
30 -13 137 0
81 -13 -43 0
-68 -199 -99 0
-48 63 -92 0
-111 -15 140 0
-19 21 -75 0
-58 -172 29 0
-78 -196 96 0
-21 103 -5 0
-101 185 -137 0
-107 112 168 0
29 14 191 0
147 200 -175 0
-164 152 -192 0
-126 -85 -95 0
-166 181 -124 0
